750
[151,153,154,155,156,157,158,159,160,161,162,163,164,165,167,168,170,171,172,175,176,177,179,180,182,183,184,185,187,188,189,190,192,193,194,196,197,198,199,200,201,202,203,204,205,207,208,209,213,214,215,217,218,219,220,222,223,224,226,228,229,230,231,232,233,234,236,237,238,239,240,242,243,244,245,246,247,248,249,250,251,252,253,255,259,260,261,262,263,264,266,267,269,270,272,273,274,275,276,277,278,279,280,281,282,283,284,285,286,288,289,291,292,293,294,296,297,298,300,301,302,303,304,306,307,313,314,315,316,317,318,321,325,327,329,331,332,333,334,336,337,338,339,340,341,342,343,346,347,348,349,350,351,352,353,354,358,361,362,363,364,366,367,368,369,370,371,372,373,374,375,376,378,379,380,381,382,385,386,387,388,389,391,392,393,395,396,397,398,399,400,402,403,405,406,407,408,409,410,411,413,415,416,417,420,421,423,424,425,426,428,429,430,431,432,434,435,436,437,438,442,445,446,447,449,451,454,455,457,459,460,461,462,463,464,465,466,467,470,472,473,475,477,478,480,482,483,484,485,486,487,488,489,490,491,492,496,497,498,499,501,502,503,504,505,507,510,511,512,513,514,517,518,519,521,523,524,525]
[1,1,1,1,1,1,1,1,4,4,1,3,2,4,2,1,2,1,3,1,1,2,1,2,2,2,2,1,1,1,2,1,1,1,1,1,2,2,1,1,4,1,2,2,2,1,1,2,1,1,2,2,1,1,2,2,1,3,2,1,3,1,2,2,1,2,3,1,1,2,2,1,2,1,2,4,1,2,2,3,2,2,1,1,3,1,2,3,1,1,1,2,2,1,1,2,2,2,1,2,2,3,1,4,2,1,2,2,1,2,1,1,2,1,1,4,1,4,3,1,4,1,2,3,1,1,3,3,2,2,1,2,3,1,1,4,2,1,1,2,1,2,2,1,2,1,1,3,2,3,1,4,3,3,2,1,2,3,3,3,1,1,3,2,1,1,1,1,1,1,3,2,2,2,1,3,3,1,1,1,2,1,1,1,2,3,1,2,2,2,3,1,1,2,4,1,1,2,3,3,2,2,1,3,1,1,2,2,2,1,2,1,3,2,1,3,1,2,2,2,2,1,2,1,1,4,3,3,1,4,2,2,3,2,2,1,1,2,1,1,3,1,1,1,1,1,1,4,1,1,3,2,2,1,1,2,2,2,3,1,1,3,1,2,2,2,1,1,1,3,3,2,1,1,2,1,2,1]
